30
3
20245
647 750 737
false
0.25
20 14 3 40 45 3 24 19 40 5 38 8 18 16 30 12 32 22 29 26 35 3 50 41 30 12 41 3 32 2
20 23 4 21 2 17 7 14 6 32 4 20 36 27 35 43 47 30 48 21 22 20 31 30 28 21 44 25 45 38
22 30 27 19 50 50 25 35 46 45 2 39 32 8 18 44 29 14 27 14 48 18 21 9 18 32 39 21 40 6
11 49 36 36 64 37 65 37 33 83 20 46 92 74 80 17 75 84 0 69 80 75 92 21 52 92 36 36 96 33
0 82 0 0 0 0 0 28 0 0 0 79 35 0 0 10 0 100 0 77 0 0 0 0 0 0 67 97 0 0
0 0 0 0 0 0 56 0 62 76 0 0 0 0 0 0 0 86 0 0 5 0 0 0 0 0 0 0 0
0 0 26 0 0 88 0 0 0 0 31 0 0 0 0 58 77 0 0 0 77 0 0 0 0 0 46 28
0 0 0 31 0 0 0 94 0 0 3 0 91 0 0 0 0 48 0 0 0 0 0 0 39 0 0
0 0 0 0 0 68 0 53 0 0 0 0 23 0 0 0 0 0 0 0 0 33 0 0 0 0
0 90 64 0 1 0 0 0 0 91 0 0 0 0 0 0 0 78 0 0 0 0 0 0 0
0 46 0 48 0 0 0 0 0 54 10 50 15 0 0 0 0 12 0 0 0 0 72 0
0 0 0 0 0 35 39 0 0 0 0 0 0 0 0 0 0 0 0 31 0 0 35
0 0 0 0 25 0 0 0 0 0 51 0 0 39 0 0 27 43 0 55 32 0
0 0 0 11 84 51 62 0 74 58 0 0 0 40 0 0 0 74 72 0 22
0 0 0 0 85 0 41 0 0 20 0 0 0 0 0 64 46 0 0 3
0 0 0 0 0 0 0 8 38 9 39 90 0 0 0 0 0 0 0
0 29 0 10 0 0 63 0 0 0 0 0 0 0 0 0 16 0
0 73 0 0 0 28 0 46 0 0 0 0 0 34 53 0 0
0 0 0 0 0 0 0 0 0 34 17 0 52 75 0 0
0 25 46 0 0 46 0 0 0 0 0 0 27 62 0
0 0 59 0 13 0 0 0 0 0 0 87 0 0
0 0 0 57 0 99 73 71 0 0 7 99 0
0 0 0 0 0 0 0 0 0 0 0 0
0 67 0 0 0 0 86 0 0 0 0
0 0 0 53 0 0 0 0 0 0
0 0 0 0 0 0 0 0 0
0 87 0 0 0 0 0 0
0 0 0 0 0 0 23
0 76 0 0 0 0
0 0 0 29 0
0 0 0 18
0 0 0
0 65
0 0 97 100 0 72 0 0 74 0 25 9 0 82 0 0 6 0 0 0 0 0 0 0 0 0 0 0 0
0 0 12 0 0 0 0 90 0 0 18 0 0 0 72 0 0 0 0 0 0 0 0 0 0 0 58 0
0 0 0 0 80 53 86 0 0 0 0 0 0 0 0 99 0 0 0 0 79 82 0 0 0 85 0
0 0 97 0 0 0 59 0 0 0 49 0 0 0 0 46 0 0 55 0 0 45 0 80 0 0
0 51 0 0 0 0 0 0 0 32 0 0 0 71 51 96 100 0 0 8 0 0 0 0 0
0 68 0 0 0 13 0 0 0 0 97 0 0 0 0 0 99 0 0 0 0 0 0 0
0 0 0 0 0 0 0 0 0 0 50 0 0 0 0 0 0 46 0 0 34 0 0
0 0 62 0 57 0 0 0 32 0 0 0 0 0 0 34 91 31 0 58 0 0
0 0 0 0 43 0 0 0 0 72 0 17 74 0 39 0 47 0 24 19 0
0 0 0 0 0 0 10 0 15 0 0 0 86 0 0 0 12 0 42 0
0 0 0 72 0 0 0 0 0 0 0 13 0 0 94 22 0 0 0
0 9 67 0 57 0 0 0 80 0 0 0 0 0 0 0 8 0
0 0 76 0 39 94 20 59 90 0 63 91 0 0 26 0 55
0 34 0 0 0 98 76 0 0 45 82 0 0 0 0 0
0 4 0 0 37 0 0 0 0 0 0 4 0 0 0
0 85 0 37 0 72 0 41 69 14 0 90 0 0
0 0 32 0 0 0 0 0 98 0 0 0 0
0 35 0 23 0 0 0 0 0 0 0 0
0 0 0 0 0 0 96 0 0 0 0
0 40 0 0 53 0 0 0 0 0
0 0 12 0 0 18 0 0 35
0 46 0 0 0 0 31 0
0 0 0 0 0 0 52
0 56 0 65 0 0
0 0 96 0 1
0 0 0 0
0 67 0
0 60
0
0 90 0 0 0 58 0 0 71 0 0 0 44 69 0 0 90 25 0 6 89 32 0 60 3 0 35 0
0 53 28 0 0 93 0 0 0 36 0 81 34 0 80 0 0 86 0 0 0 0 53 42 0 0 0
0 0 0 69 0 0 0 0 0 0 0 0 0 0 0 0 0 0 0 0 0 0 21 0 0 0
0 0 25 0 0 0 0 0 0 0 81 65 0 0 0 0 0 0 0 98 0 0 0 0 22
0 0 0 14 92 0 0 0 0 0 0 0 0 79 0 50 20 0 0 10 0 0 49 42
0 63 38 0 0 0 0 0 83 0 0 0 0 0 0 0 0 0 0 0 0 0 0
0 0 0 44 0 21 0 0 0 10 81 0 0 0 0 0 94 0 0 0 76 0
0 0 0 4 0 0 48 0 0 0 0 0 0 0 0 0 18 0 0 0 0
0 0 0 0 0 0 0 0 0 0 95 0 0 0 58 0 0 0 48 0
0 0 0 0 0 98 0 0 89 56 0 0 0 0 0 0 0 0 0
0 0 0 61 100 0 0 46 26 0 95 0 0 0 0 0 0 0
0 0 0 0 3 0 0 0 0 0 0 0 31 0 0 0 0
0 0 0 38 19 97 0 0 24 65 0 0 4 0 0 51
0 0 56 0 1 16 37 52 0 0 0 0 0 0 45
0 0 0 0 28 0 11 0 0 0 0 0 76 0
0 0 0 57 25 0 56 0 0 0 0 0 0
0 20 0 0 0 40 0 85 0 0 0 23
0 54 49 0 53 0 0 0 14 86 0
0 0 27 0 0 0 0 0 0 50
0 16 59 0 0 3 0 0 89
0 0 0 0 0 83 0 0
0 0 0 0 8 0 0
0 0 93 26 0 82
0 0 0 0 0
0 0 0 0
0 0 0
0 29
0
0 0 0 0 64 65 0 0 0 0 0 66 0 87 0 0 0 66 0 0 0 0 0 0 0 28 0
0 0 0 0 0 0 0 87 14 0 0 62 0 0 40 45 0 0 0 0 0 0 0 0 0 0
0 0 19 0 0 55 0 0 0 0 35 0 0 0 0 94 0 0 0 45 91 0 0 0 0
0 0 0 0 0 70 59 0 0 0 0 47 0 0 0 56 28 0 0 0 0 0 0 0
0 0 0 30 94 0 30 55 0 0 0 0 0 0 84 0 9 93 90 0 0 0 0
0 0 0 0 0 0 0 0 0 0 0 0 48 13 0 0 0 0 0 0 0 85
0 68 0 0 0 0 0 0 88 0 0 34 41 0 0 0 30 0 0 0 0
0 84 0 0 0 42 2 0 68 91 17 0 0 41 0 9 0 0 0 0
0 0 0 0 0 0 89 0 90 0 0 0 0 0 0 0 36 26 0
0 0 0 0 0 0 26 0 0 0 0 0 0 0 0 0 87 45
0 71 0 39 0 70 27 0 0 0 0 0 0 0 0 0 0
0 27 0 0 0 0 0 0 0 0 12 59 0 5 66 0
0 0 26 0 44 0 0 19 64 56 0 0 0 0 0
0 0 0 0 23 0 0 0 0 88 0 0 0 39
0 0 0 0 0 0 89 26 0 0 0 16 0
0 0 0 0 8 0 88 0 0 0 49 0
0 0 99 0 0 0 0 0 88 0 0
0 58 0 12 0 8 0 50 0 0
0 100 39 0 0 52 57 0 0
0 0 0 0 0 0 0 0
0 56 0 0 77 0 0
0 0 3 18 0 0
0 0 0 0 0
0 0 0 0
0 0 0
0 0
0
0 0 0 63 0 0 0 0 72 48 0 0 0 0 0 0 15 0 0 35 39 0 0 91 0 6
0 0 0 0 0 89 23 0 0 0 0 0 0 0 0 0 0 0 36 0 0 0 16 0 0
0 0 74 0 0 0 0 0 8 0 0 0 0 0 100 0 0 0 0 0 94 0 0 0
0 0 97 0 0 0 0 85 79 0 0 0 0 25 84 0 65 0 0 82 40 0 17
0 0 0 13 0 0 44 0 97 0 0 0 0 0 0 0 0 0 0 0 0 0
0 0 46 56 0 0 0 0 23 0 34 0 0 13 0 0 0 0 0 0 0
0 0 30 32 0 0 27 0 32 0 0 0 0 0 0 0 0 0 0 0
0 0 0 2 0 0 81 0 0 0 0 0 0 0 0 0 9 0 0
0 0 16 0 32 0 0 91 0 0 32 0 20 36 0 0 0 0
0 0 84 0 51 45 0 0 0 0 0 0 0 0 0 0 0
0 0 0 0 0 10 0 0 0 0 0 0 0 0 0 42
0 0 0 18 0 0 11 98 0 0 97 88 0 0 99
0 0 40 0 0 0 80 0 0 32 0 9 0 54
0 0 0 0 45 0 0 74 0 0 31 0 0
0 0 0 0 98 0 17 0 0 0 0 0
0 0 0 0 0 0 0 0 0 0 0
0 0 68 0 0 40 0 0 0 0
0 0 0 0 61 0 0 0 12
0 0 12 0 0 0 0 60
0 3 59 0 0 85 36
0 0 71 0 0 0
0 0 0 20 0
0 0 0 0
0 0 0
0 19
0
0 8 0 0 0 39 0 0 0 0 0 0 0 0 0 0 0 56 0 35 72 0 9 0 0
0 0 0 0 16 99 0 0 67 0 0 0 0 0 0 0 59 85 0 0 72 0 0 0
0 0 0 0 0 11 0 1 92 0 0 35 0 0 0 0 11 3 0 80 46 0 60
0 0 48 0 0 90 0 0 0 92 0 0 3 0 0 15 0 0 0 0 0 38
0 0 0 0 0 46 0 0 0 0 55 0 0 0 26 0 0 21 61 0 59
0 0 0 0 5 0 0 0 0 0 0 84 0 0 0 0 0 0 0 75
0 0 0 0 0 0 0 0 16 0 0 0 0 27 0 0 18 49 0
0 0 25 33 0 0 0 0 0 0 13 0 0 4 0 0 0 0
0 0 69 0 0 48 4 0 0 0 0 3 0 6 0 0 0
0 70 89 0 0 0 0 77 0 38 0 0 0 0 12 0
0 0 0 0 0 0 0 0 99 0 0 0 0 0 0
0 0 0 0 0 0 71 0 19 0 0 0 0 0
0 69 0 0 46 0 51 0 12 0 0 0 0
0 0 18 0 0 0 0 0 0 5 0 0
0 0 0 0 0 0 0 0 0 0 44
0 65 48 0 0 0 0 40 0 0
0 84 22 0 0 0 84 0 51
0 0 0 0 0 0 37 0
0 0 0 0 59 90 0
0 83 0 0 0 0
0 0 0 42 0
0 0 92 5
0 0 26
0 0
0
0 4 0 28 0 0 0 29 0 0 0 63 0 0 0 26 0 0 0 0 47 0 43 0
0 0 0 40 21 0 69 0 0 0 0 87 8 0 0 0 0 0 0 0 0 0 0
0 0 21 0 0 0 0 36 17 0 0 0 0 0 42 75 0 0 0 62 0 14
0 0 0 52 0 0 53 62 0 4 0 0 0 0 0 0 0 0 0 0 0
0 0 0 0 0 0 0 0 56 0 0 47 17 0 80 0 48 0 0 35
0 5 0 0 0 0 0 0 0 0 28 5 0 0 10 0 49 0 0
0 0 0 0 0 0 0 0 0 0 0 0 0 0 0 0 0 0
0 60 15 0 0 0 0 0 0 0 61 0 0 67 0 0 0
0 0 11 0 34 0 0 0 0 0 0 0 81 0 0 0
0 0 0 0 0 0 0 0 0 0 79 0 0 67 0
0 0 0 34 0 87 1 0 0 0 0 0 0 83
0 0 91 0 0 29 0 0 0 0 0 0 0
0 0 0 93 59 0 0 12 0 5 0 0
0 0 0 0 0 0 0 0 0 0 0
0 0 0 0 0 58 72 0 0 54
0 23 0 0 0 0 0 49 0
0 0 0 0 0 37 0 0
0 0 44 0 80 0 0
0 55 0 71 0 0
0 0 0 0 0
0 0 0 0
0 0 0
0 0
0
0 0 0 0 0 0 0 0 0 18 0 0 11 89 63 0 0 0 0 0 0 0 71
0 0 100 0 0 0 0 0 0 0 0 17 44 0 0 0 0 0 0 0 87 0
0 0 0 0 32 96 0 0 0 41 10 0 4 31 0 0 0 0 0 0 0
0 0 28 0 0 0 0 0 0 0 0 0 0 55 0 0 0 0 0 0
0 0 0 32 0 81 21 59 0 6 87 0 0 0 0 0 0 0 0
0 0 0 0 0 27 0 0 0 23 0 0 0 0 0 0 0 0
0 0 49 31 0 67 0 56 0 45 0 0 0 0 0 0 0
0 0 0 0 0 0 0 0 0 0 65 39 0 0 0 0
0 0 0 89 0 29 63 0 80 64 89 0 11 0 98
0 0 0 63 43 0 0 41 0 0 0 0 0 45
0 0 0 0 0 0 0 0 0 0 0 30 0
0 0 0 56 10 55 0 18 0 0 68 0
0 0 26 0 0 0 0 49 68 78 0
0 0 0 0 0 0 0 0 0 0
0 0 0 0 0 0 0 18 0
0 0 0 0 0 0 0 0
0 0 0 69 26 46 0
0 0 0 0 30 2
0 0 0 46 47
0 71 0 0
0 0 0
0 70
0
0 0 0 0 0 0 0 0 0 0 0 12 34 59 0 0 0 0 0 0 67 0
0 0 0 0 0 0 22 0 0 0 69 0 0 0 38 34 0 0 0 0 0
0 0 0 0 0 12 0 0 82 51 0 0 0 98 84 0 0 0 0 0
0 0 56 0 0 0 0 8 0 4 0 0 0 0 0 0 0 0 0
0 0 75 0 0 0 0 0 0 0 91 0 0 0 0 92 0 0
0 0 0 90 0 0 94 73 0 0 0 0 4 0 0 0 0
0 38 0 0 0 0 0 0 0 46 0 0 71 0 0 68
0 0 0 3 0 0 0 0 0 0 84 91 60 0 80
0 44 0 91 0 0 0 0 0 0 0 0 0 0
0 0 0 0 0 0 0 0 0 59 23 59 0
0 38 0 20 0 0 0 0 0 0 0 0
0 31 0 0 0 16 44 0 0 0 24
0 0 78 0 0 92 0 32 0 0
0 0 13 51 49 0 0 0 0
0 0 26 63 0 0 0 0
0 0 39 3 0 49 0
0 0 0 0 90 0
0 87 60 13 0
0 0 0 0
0 27 0
0 0
0
0 0 45 0 0 0 52 0 0 2 52 0 0 0 0 19 0 71 0 0 20
0 60 0 0 0 0 0 0 0 0 46 76 0 0 0 0 0 42 0 0
0 92 0 0 0 0 0 38 0 0 0 0 38 0 68 0 0 0 0
0 0 0 0 73 0 0 31 0 62 0 0 9 0 0 0 0 0
0 52 28 0 0 96 0 0 0 0 8 0 0 0 0 92 0
0 0 34 0 0 0 0 0 0 0 0 0 0 0 0 0
0 0 0 0 0 0 0 0 31 0 0 0 0 0 68
0 0 0 0 0 0 0 0 49 56 0 21 0 0
0 0 0 0 0 51 0 52 0 0 0 81 97
0 0 94 0 0 0 0 0 3 45 33 0
0 0 0 0 0 0 0 55 0 40 0
0 0 100 0 0 66 0 35 0 36
0 0 0 0 72 0 0 0 0
0 0 0 0 0 6 0 61
0 0 0 0 0 0 0
0 29 74 42 0 2
0 0 0 98 4
0 67 22 100
0 0 18
0 0
0
0 0 0 0 0 0 73 0 0 0 0 0 85 0 0 50 0 0 0 0
0 0 29 0 35 85 0 0 49 0 0 0 0 0 0 29 20 0 0
0 0 0 0 0 0 0 0 0 0 0 0 0 0 0 0 0 0
0 0 0 0 0 0 52 0 0 0 31 0 72 0 42 0 0
0 0 0 0 0 0 0 0 0 0 0 80 83 94 53 0
0 0 0 0 0 69 86 0 0 0 0 0 0 0 18
0 37 86 0 79 0 0 36 0 0 0 0 0 20
0 0 67 0 0 76 0 0 0 0 0 0 0
0 32 0 0 0 46 0 0 0 78 0 0
0 0 0 56 0 0 0 0 0 0 88
0 0 0 32 12 0 28 66 0 0
0 0 92 0 0 0 0 19 0
0 19 0 0 0 0 22 0
0 0 4 0 0 0 0
0 0 0 0 0 0
0 0 22 0 0
0 0 10 0
0 0 88
0 0
0
0 0 0 19 0 0 0 0 0 0 0 0 0 0 8 0 0 74 0
0 0 0 0 89 0 0 38 0 0 0 78 0 0 93 6 59 90
0 0 0 57 0 0 0 49 0 0 0 0 0 1 0 94 72
0 0 57 0 0 0 84 0 75 0 0 0 0 0 0 0
0 0 0 0 0 0 0 0 0 0 31 75 0 0 3
0 46 0 0 0 0 0 0 53 0 94 0 0 0
0 0 0 0 0 27 0 0 0 0 0 57 6
0 0 0 0 0 0 0 0 0 0 55 72
0 0 0 52 63 0 0 0 0 0 0
0 0 0 74 0 0 0 0 0 0
0 0 54 0 0 0 0 54 0
0 0 0 0 58 0 0 0
0 76 0 98 0 0 0
0 18 34 70 88 0
0 0 0 0 0
0 0 0 0
0 0 0
0 0
0
0 3 0 0 66 65 0 19 0 81 0 0 89 51 0 0 33 0
0 93 85 27 0 0 0 10 0 0 41 0 0 35 51 0 3
0 0 0 0 0 0 0 30 91 0 10 0 0 0 0 0
0 0 0 37 14 0 0 72 0 0 56 0 0 0 0
0 0 54 0 0 0 36 47 0 0 0 0 0 96
0 0 0 55 84 0 0 55 29 34 0 0 0
0 0 0 0 0 0 70 0 18 0 0 71
0 0 62 0 0 0 66 0 83 0 0
0 0 0 0 0 0 0 0 0 0
0 0 0 77 0 0 79 0 0
0 8 0 0 0 0 0 0
0 0 0 0 0 0 0
0 0 0 0 0 0
0 0 0 21 0
0 0 78 0
0 0 0
0 67
0
0 0 0 0 0 0 0 0 64 0 0 0 0 0 95 71 0
0 0 0 0 0 0 0 0 92 0 0 0 53 0 0 0
0 0 0 0 0 0 0 0 0 0 0 0 0 0 0
0 0 0 19 0 0 0 0 0 0 0 0 1 0
0 0 0 0 0 2 0 69 18 0 70 0 0
0 95 0 74 0 0 0 0 0 79 0 38
0 0 0 0 22 0 0 0 80 0 0
0 0 0 2 0 0 0 0 0 86
0 77 0 62 0 0 0 0 0
0 0 0 0 0 0 0 0
0 25 90 0 7 87 91
0 0 44 0 0 0
0 0 0 0 0
0 0 0 0
0 0 42
0 0
0
0 0 0 35 0 0 0 2 0 0 0 0 0 0 0 0
0 77 49 0 55 0 0 0 0 87 0 0 0 0 0
0 0 0 0 0 0 0 0 0 0 0 0 0 0
0 0 89 0 39 26 0 0 0 0 0 0 0
0 0 0 39 0 0 0 0 3 99 0 0
0 0 0 0 0 57 0 75 3 26 15
0 11 0 0 0 0 0 3 0 0
0 3 0 89 74 0 0 0 0
0 0 0 81 0 0 0 0
0 0 0 0 0 0 0
0 0 0 0 97 0
0 0 9 0 0
0 0 0 0
0 68 0
0 0
0
0 0 0 21 0 0 0 0 88 0 0 0 0 0 98
0 0 0 0 27 0 0 0 0 0 71 0 0 0
0 0 0 0 81 49 98 0 50 0 0 0 0
0 0 0 0 0 78 0 0 0 0 0 0
0 0 0 0 0 0 0 0 0 6 0
0 0 70 0 0 12 92 51 0 0
0 17 0 0 91 0 0 0 0
0 23 0 49 30 0 0 0
0 89 0 0 0 0 0
0 0 0 13 76 0
0 0 0 0 0
0 0 0 0
0 70 0
0 0
0
0 83 6 0 0 0 0 0 10 0 0 58 0 0
0 0 0 14 0 27 94 0 0 13 0 0 74
0 95 0 36 13 0 0 0 0 0 100 0
0 0 0 80 0 0 0 15 0 0 0
0 0 2 0 0 0 0 0 0 15
0 0 0 0 0 0 0 0 0
0 0 61 0 0 6 0 0
0 0 0 30 0 0 0
0 0 23 0 0 0
0 34 0 0 0
0 0 83 0
0 0 58
0 0
0
0 93 0 0 0 0 0 8 33 86 0 0 19
0 9 0 88 0 72 0 0 61 0 0 0
0 0 0 85 0 0 0 0 12 0 0
0 0 0 0 54 100 0 0 0 91
0 0 54 0 0 70 64 0 0
0 0 0 0 35 0 0 0
0 83 96 85 0 46 5
0 0 0 0 0 0
0 0 0 94 0
0 49 94 0
0 0 0
0 0
0
0 0 65 0 0 0 23 0 0 0 0 70
0 0 0 0 0 45 0 78 0 0 0
0 0 0 0 50 0 0 0 0 0
0 0 0 0 88 0 0 79 5
0 0 0 0 0 0 0 0
0 59 0 0 0 0 0
0 0 0 0 16 0
0 0 42 0 49
0 0 0 0
0 0 73
0 0
0
0 0 0 66 0 0 0 0 0 0 0
0 91 45 0 0 21 0 0 94 0
0 0 0 69 91 0 0 0 85
0 0 63 0 0 0 0 0
0 0 0 0 0 0 34
0 11 0 0 0 0
0 0 33 90 10
0 0 0 0
0 0 60
0 0
0
0 0 0 0 0 0 68 0 0 0
0 0 18 68 0 0 0 0 0
0 0 0 0 0 0 88 36
0 0 0 0 0 0 84
0 0 0 0 0 44
0 0 0 0 0
0 59 30 0
0 0 0
0 0
0
0 0 54 63 0 43 0 0 0
0 0 0 84 0 0 0 4
0 0 0 100 76 0 32
0 0 0 0 0 0
0 53 0 0 0
0 0 43 0
0 0 0
0 0
0
0 51 11 0 0 75 0 0
0 0 0 0 89 0 0
0 0 17 0 10 0
0 0 0 0 0
0 92 0 0
0 40 0
0 0
0
0 78 0 0 0 0 0
0 0 36 0 0 0
0 0 0 0 0
0 0 0 29
0 11 0
0 47
0
0 64 12 0 0 0
0 0 77 0 30
0 0 0 0
0 43 0
0 0
0
0 0 0 0 0
0 0 0 0
0 0 0
0 88
0
0 0 0 58
0 89 40
0 73
0
0 0 0
0 0
0
0 0
0
0
6716 6009 5985 5873 5107 4606 5611 6109 5431 5402 5670 5260 4797 5362 5719 5977 6370 5735 6000 5526 5513 6268 5298 6189 5510 5958 4985 5678 5851 5109
325.6242424242424 296.92505175983433 1237.638888888889 245.1989766081871 923.042962962963 632.7981699346406 419.9343650793651 310.80877192982456 386.3356280193236 456.4189814814815 1467.2368421052633 351.7905982905983 183.21875 401.3225308641975 223.91851851851848 257.64141414141415 184.74986243580338 287.1637806637807 184.70625798212004 290.13186813186815 174.31978715728715 916.9851851851853 176.382980030722 348.30596205962064 228.85449735449734 322.1339285714286 120.90044440654196 796.7225396825397 153.04699074074074 1180.1491228070174
